(set-info :source |printed by MathSAT|)
(declare-fun call_sustain.ite2 () Bool)
(declare-fun ite () Bool)
(declare-fun call_redge4.flby.next () Bool)
(declare-fun start2.next () Bool)
(declare-fun call_fedge2.f.next () Bool)
(declare-fun call_fedge2.call_redge.r () Bool)
(declare-fun param_MaySafelyMove.next () Bool)
(declare-fun call_sustain.ite2.next () Bool)
(declare-fun moving.next () Bool)
(declare-fun start2 () Bool)
(declare-fun param_MaySafelyMove () Bool)
(declare-fun MayMove1.next () Bool)
(declare-fun MayMove2 () Bool)
(declare-fun call_redge.flby () Bool)
(declare-fun flby () Bool)
(declare-fun start1.next () Bool)
(declare-fun flby.next () Bool)
(declare-fun ite2 () Bool)
(declare-fun _OK_.next () Bool)
(declare-fun call_redge3.r.next () Bool)
(declare-fun param_TryToMove2 () Bool)
(declare-fun call_redge2.flby () Bool)
(declare-fun stop () Bool)
(declare-fun flby3.next () Bool)
(declare-fun flby2.next () Bool)
(declare-fun MayMove2.next () Bool)
(declare-fun call_sustain.s.next () Bool)
(declare-fun call_redge3.flby.next () Bool)
(declare-fun call_redge.flby.next () Bool)
(declare-fun call_redge4.r.next () Bool)
(declare-fun call_fedge.call_redge.r () Bool)
(declare-fun call_fedge.call_redge.r.next () Bool)
(declare-fun ite2.next () Bool)
(declare-fun call_sustain.ite () Bool)
(declare-fun call_fedge.call_redge.flby () Bool)
(declare-fun call_fedge.call_redge.flby.next () Bool)
(declare-fun call_sustain.flby () Bool)
(declare-fun flby3 () Bool)
(declare-fun _OK_ () Bool)
(declare-fun stop.next () Bool)
(declare-fun call_redge4.r () Bool)
(declare-fun call_fedge2.call_redge.r.next () Bool)
(declare-fun call_fedge2.f () Bool)
(declare-fun moving () Bool)
(declare-fun call_fedge2.call_redge.flby.next () Bool)
(declare-fun flby2 () Bool)
(declare-fun call_redge3.r () Bool)
(declare-fun param_TryToMove1 () Bool)
(declare-fun call_sustain.ite.next () Bool)
(declare-fun call_fedge.f.next () Bool)
(declare-fun param_TryToMove1.next () Bool)
(declare-fun param_TryToMove2.next () Bool)
(declare-fun call_redge4.flby () Bool)
(declare-fun start1 () Bool)
(declare-fun call_sustain.flby.next () Bool)
(declare-fun call_redge2.flby.next () Bool)
(declare-fun call_redge3.flby () Bool)
(declare-fun call_fedge.f () Bool)
(declare-fun call_redge2.r.next () Bool)
(declare-fun call_redge2.r () Bool)
(declare-fun call_fedge2.call_redge.flby () Bool)
(declare-fun ite.next () Bool)
(declare-fun MayMove1 () Bool)
(declare-fun call_redge.r.next () Bool)
(declare-fun call_redge.r () Bool)
(declare-fun call_sustain.s () Bool)
(define-fun .def_539 () Bool (= call_redge4.flby.next call_redge4.r.next))
(define-fun .def_537 () Bool (= call_redge3.flby.next call_redge3.r.next))
(define-fun .def_535 () Bool (= call_fedge2.call_redge.flby.next call_fedge2.call_redge.r.next))
(define-fun .def_533 () Bool (= call_fedge2.f.next call_fedge2.call_redge.r.next))
(define-fun .def_530 () Bool (= call_fedge.call_redge.flby.next call_fedge.call_redge.r.next))
(define-fun .def_528 () Bool (= call_fedge.f.next call_fedge.call_redge.r.next))
(define-fun .def_525 () Bool (= call_redge2.flby.next call_redge2.r.next))
(define-fun .def_523 () Bool (= call_redge.flby.next call_redge.r.next))
(define-fun .def_521 () Bool (= call_sustain.flby.next call_sustain.s.next))
(define-fun .def_492 () Bool (not call_redge4.r.next))
(define-fun .def_490 () Bool (not call_redge3.r.next))
(define-fun .def_493 () Bool (or .def_490 .def_492))
(define-fun .def_519 () Bool (or ite2.next .def_493))
(define-fun .def_516 () Bool (= moving.next call_sustain.s.next))
(define-fun .def_512 () Bool (not moving.next))
(define-fun .def_511 () Bool (= param_MaySafelyMove.next ite.next))
(define-fun .def_513 () Bool (or .def_511 .def_512))
(define-fun .def_510 () Bool (or ite.next moving.next))
(define-fun .def_514 () Bool (and .def_510 .def_513))
(define-fun .def_517 () Bool (and .def_514 .def_516))
(define-fun .def_506 () Bool (or call_fedge.f.next call_fedge2.f.next))
(define-fun .def_507 () Bool (= stop.next .def_506))
(define-fun .def_502 () Bool (= start2.next call_redge2.r.next))
(define-fun .def_498 () Bool (= start1.next call_redge.r.next))
(define-fun .def_494 () Bool (not .def_493))
(define-fun .def_480 () Bool (not start2.next))
(define-fun .def_478 () Bool (not start1.next))
(define-fun .def_482 () Bool (and .def_478 .def_480))
(define-fun .def_406 () Bool (not stop.next))
(define-fun .def_481 () Bool (and .def_406 .def_480))
(define-fun .def_483 () Bool (or .def_481 .def_482))
(define-fun .def_479 () Bool (and .def_406 .def_478))
(define-fun .def_484 () Bool (or .def_479 .def_483))
(define-fun .def_471 () Bool (and start1.next start2.next))
(define-fun .def_476 () Bool (and stop.next .def_471))
(define-fun .def_477 () Bool (not .def_476))
(define-fun .def_485 () Bool (and .def_477 .def_484))
(define-fun .def_487 () Bool (and .def_485 ite.next))
(define-fun .def_488 () Bool (= ite2.next .def_487))
(define-fun .def_495 () Bool (or .def_488 .def_494))
(define-fun .def_473 () Bool (not .def_471))
(define-fun .def_474 () Bool (or call_sustain.ite2.next .def_473))
(define-fun .def_468 () Bool (= call_sustain.ite.next call_sustain.ite2.next))
(define-fun .def_472 () Bool (or .def_468 .def_471))
(define-fun .def_475 () Bool (and .def_472 .def_474))
(define-fun .def_496 () Bool (and .def_475 .def_495))
(define-fun .def_499 () Bool (and .def_496 .def_498))
(define-fun .def_465 () Bool (and param_TryToMove2.next param_MaySafelyMove.next))
(define-fun .def_466 () Bool (= MayMove2.next .def_465))
(define-fun .def_463 () Bool (= flby3.next _OK_.next))
(define-fun .def_460 () Bool (and param_TryToMove1.next param_MaySafelyMove.next))
(define-fun .def_461 () Bool (= MayMove1.next .def_460))
(define-fun .def_464 () Bool (and .def_461 .def_463))
(define-fun .def_467 () Bool (and .def_464 .def_466))
(define-fun .def_500 () Bool (and .def_467 .def_499))
(define-fun .def_503 () Bool (and .def_500 .def_502))
(define-fun .def_508 () Bool (and .def_503 .def_507))
(define-fun .def_518 () Bool (and .def_508 .def_517))
(define-fun .def_520 () Bool (and .def_518 .def_519))
(define-fun .def_522 () Bool (and .def_520 .def_521))
(define-fun .def_524 () Bool (and .def_522 .def_523))
(define-fun .def_526 () Bool (and .def_524 .def_525))
(define-fun .def_529 () Bool (and .def_526 .def_528))
(define-fun .def_531 () Bool (and .def_529 .def_530))
(define-fun .def_534 () Bool (and .def_531 .def_533))
(define-fun .def_536 () Bool (and .def_534 .def_535))
(define-fun .def_538 () Bool (and .def_536 .def_537))
(define-fun .def_540 () Bool (and .def_538 .def_539))
(define-fun .def_398 () Bool (= call_redge4.flby call_redge4.r))
(define-fun .def_396 () Bool (= call_redge3.flby call_redge3.r))
(define-fun .def_394 () Bool (= call_fedge2.call_redge.flby call_fedge2.call_redge.r))
(define-fun .def_392 () Bool (= call_fedge2.f call_fedge2.call_redge.r))
(define-fun .def_389 () Bool (= call_fedge.call_redge.flby call_fedge.call_redge.r))
(define-fun .def_387 () Bool (= call_fedge.f call_fedge.call_redge.r))
(define-fun .def_384 () Bool (= call_redge2.flby call_redge2.r))
(define-fun .def_382 () Bool (= call_redge.flby call_redge.r))
(define-fun .def_380 () Bool (= call_sustain.flby call_sustain.s))
(define-fun .def_351 () Bool (not call_redge4.r))
(define-fun .def_349 () Bool (not call_redge3.r))
(define-fun .def_352 () Bool (or .def_349 .def_351))
(define-fun .def_378 () Bool (or ite2 .def_352))
(define-fun .def_375 () Bool (= moving call_sustain.s))
(define-fun .def_371 () Bool (not moving))
(define-fun .def_370 () Bool (= param_MaySafelyMove ite))
(define-fun .def_372 () Bool (or .def_370 .def_371))
(define-fun .def_369 () Bool (or ite moving))
(define-fun .def_373 () Bool (and .def_369 .def_372))
(define-fun .def_376 () Bool (and .def_373 .def_375))
(define-fun .def_365 () Bool (or call_fedge.f call_fedge2.f))
(define-fun .def_366 () Bool (= stop .def_365))
(define-fun .def_361 () Bool (= start2 call_redge2.r))
(define-fun .def_357 () Bool (= start1 call_redge.r))
(define-fun .def_353 () Bool (not .def_352))
(define-fun .def_338 () Bool (not start2))
(define-fun .def_336 () Bool (not start1))
(define-fun .def_340 () Bool (and .def_336 .def_338))
(define-fun .def_279 () Bool (not stop))
(define-fun .def_339 () Bool (and .def_279 .def_338))
(define-fun .def_341 () Bool (or .def_339 .def_340))
(define-fun .def_337 () Bool (and .def_279 .def_336))
(define-fun .def_342 () Bool (or .def_337 .def_341))
(define-fun .def_289 () Bool (and start1 start2))
(define-fun .def_334 () Bool (and stop .def_289))
(define-fun .def_335 () Bool (not .def_334))
(define-fun .def_343 () Bool (and .def_335 .def_342))
(define-fun .def_345 () Bool (and .def_343 ite))
(define-fun .def_347 () Bool (= .def_345 ite2))
(define-fun .def_354 () Bool (or .def_347 .def_353))
(define-fun .def_331 () Bool (not .def_289))
(define-fun .def_332 () Bool (or call_sustain.ite2 .def_331))
(define-fun .def_329 () Bool (= call_sustain.ite call_sustain.ite2))
(define-fun .def_330 () Bool (or .def_289 .def_329))
(define-fun .def_333 () Bool (and .def_330 .def_332))
(define-fun .def_355 () Bool (and .def_333 .def_354))
(define-fun .def_358 () Bool (and .def_355 .def_357))
(define-fun .def_325 () Bool (and param_TryToMove2 param_MaySafelyMove))
(define-fun .def_326 () Bool (= MayMove2 .def_325))
(define-fun .def_323 () Bool (= flby3 _OK_))
(define-fun .def_320 () Bool (and param_TryToMove1 param_MaySafelyMove))
(define-fun .def_321 () Bool (= MayMove1 .def_320))
(define-fun .def_324 () Bool (and .def_321 .def_323))
(define-fun .def_327 () Bool (and .def_324 .def_326))
(define-fun .def_359 () Bool (and .def_327 .def_358))
(define-fun .def_362 () Bool (and .def_359 .def_361))
(define-fun .def_367 () Bool (and .def_362 .def_366))
(define-fun .def_377 () Bool (and .def_367 .def_376))
(define-fun .def_379 () Bool (and .def_377 .def_378))
(define-fun .def_381 () Bool (and .def_379 .def_380))
(define-fun .def_383 () Bool (and .def_381 .def_382))
(define-fun .def_385 () Bool (and .def_383 .def_384))
(define-fun .def_388 () Bool (and .def_385 .def_387))
(define-fun .def_390 () Bool (and .def_388 .def_389))
(define-fun .def_393 () Bool (and .def_390 .def_392))
(define-fun .def_395 () Bool (and .def_393 .def_394))
(define-fun .def_397 () Bool (and .def_395 .def_396))
(define-fun .def_399 () Bool (and .def_397 .def_398))
(define-fun .def_541 () Bool (and .def_399 .def_540))
(define-fun .def_410 () Bool (not param_TryToMove2))
(define-fun .def_455 () Bool (and .def_410 param_TryToMove2.next))
(define-fun .def_457 () Bool (= .def_455 call_redge4.flby.next))
(define-fun .def_414 () Bool (not param_TryToMove1))
(define-fun .def_450 () Bool (and .def_414 param_TryToMove1.next))
(define-fun .def_452 () Bool (= .def_450 call_redge3.flby.next))
(define-fun .def_444 () Bool (not MayMove2.next))
(define-fun .def_445 () Bool (and MayMove2 .def_444))
(define-fun .def_447 () Bool (= .def_445 call_fedge2.call_redge.flby.next))
(define-fun .def_439 () Bool (not MayMove1.next))
(define-fun .def_440 () Bool (and MayMove1 .def_439))
(define-fun .def_442 () Bool (= .def_440 call_fedge.call_redge.flby.next))
(define-fun .def_299 () Bool (and flby2 MayMove2))
(define-fun .def_434 () Bool (not .def_299))
(define-fun .def_433 () Bool (and flby2.next MayMove2.next))
(define-fun .def_435 () Bool (and .def_433 .def_434))
(define-fun .def_437 () Bool (= .def_435 call_redge2.flby.next))
(define-fun .def_294 () Bool (and flby MayMove1))
(define-fun .def_427 () Bool (not .def_294))
(define-fun .def_426 () Bool (and flby.next MayMove1.next))
(define-fun .def_428 () Bool (and .def_426 .def_427))
(define-fun .def_430 () Bool (= .def_428 call_redge.flby.next))
(define-fun .def_423 () Bool (= call_sustain.ite2.next call_sustain.flby.next))
(define-fun .def_419 () Bool (= flby3.next ite2.next))
(define-fun .def_415 () Bool (= flby2.next .def_414))
(define-fun .def_411 () Bool (= flby.next .def_410))
(define-fun .def_405 () Bool (not call_sustain.ite.next))
(define-fun .def_407 () Bool (or .def_405 .def_406))
(define-fun .def_402 () Bool (= call_sustain.s call_sustain.ite.next))
(define-fun .def_404 () Bool (or .def_402 stop.next))
(define-fun .def_408 () Bool (and .def_404 .def_407))
(define-fun .def_412 () Bool (and .def_408 .def_411))
(define-fun .def_416 () Bool (and .def_412 .def_415))
(define-fun .def_420 () Bool (and .def_416 .def_419))
(define-fun .def_424 () Bool (and .def_420 .def_423))
(define-fun .def_431 () Bool (and .def_424 .def_430))
(define-fun .def_438 () Bool (and .def_431 .def_437))
(define-fun .def_443 () Bool (and .def_438 .def_442))
(define-fun .def_448 () Bool (and .def_443 .def_447))
(define-fun .def_453 () Bool (and .def_448 .def_452))
(define-fun .def_458 () Bool (and .def_453 .def_457))
(define-fun .def_542 () Bool (and .def_458 .def_541))
(assert .def_542)
